************************************************************************
file with basedata            : cm435_.bas
initial value random generator: 1733247571
************************************************************************
projects                      :  1
jobs (incl. supersource/sink ):  18
horizon                       :  134
RESOURCES
  - renewable                 :  2   R
  - nonrenewable              :  2   N
  - doubly constrained        :  0   D
************************************************************************
PROJECT INFORMATION:
pronr.  #jobs rel.date duedate tardcost  MPM-Time
    1     16      0       20        5       20
************************************************************************
PRECEDENCE RELATIONS:
jobnr.    #modes  #successors   successors
   1        1          3           2   3   4
   2        4          3           5   9  11
   3        4          2           5   9
   4        4          1          12
   5        4          2           6   7
   6        4          2           8  12
   7        4          2           8  10
   8        4          3          15  16  17
   9        4          3          13  15  17
  10        4          2          13  14
  11        4          2          13  14
  12        4          2          14  16
  13        4          1          16
  14        4          2          15  17
  15        4          1          18
  16        4          1          18
  17        4          1          18
  18        1          0        
************************************************************************
REQUESTS/DURATIONS:
jobnr. mode duration  R 1  R 2  N 1  N 2
------------------------------------------------------------------------
  1      1     0       0    0    0    0
  2      1     3       2    0    9    3
         2     5       0    5    4    3
         3     6       0    5    4    1
         4     6       2    0    3    2
  3      1     1       0    8    6    6
         2     5       0    7    5    5
         3     6       0    6    4    4
         4     8       9    0    3    2
  4      1     2       0    5    8    7
         2     4       0    5    8    6
         3     6       0    4    7    6
         4     9       0    3    7    5
  5      1     5       7    0    5    3
         2     7       7    0    2    3
         3     7       0    4    2    3
         4     9       7    0    1    3
  6      1     1       7    0   10    9
         2     3       0    8   10    7
         3     7       4    0    9    6
         4     8       0    6    9    5
  7      1     1       9    0    3    5
         2     2       8    0    2    5
         3     6       5    0    2    5
         4     8       4    0    1    5
  8      1     3       8    0    8    9
         2     5       6    0    6    5
         3     5       0    5    7    6
         4     7       5    0    5    4
  9      1     1       6    0    3    7
         2     1       0    4    3    6
         3     2       6    0    2    6
         4     4       5    0    1    3
 10      1     5       0    5    2    6
         2     7      10    0    2    6
         3     9       0    4    2    6
         4    10       5    0    1    5
 11      1     3       0    8    5    2
         2     7       6    0    2    2
         3     7       5    0    3    2
         4     8       0    5    2    2
 12      1     3       8    0    7    6
         2     7       8    0    7    5
         3     8       5    0    6    4
         4     9       0    3    6    3
 13      1     2       5    0    9   10
         2     4       0    3    7    9
         3     4       5    0    6    9
         4    10       4    0    3    9
 14      1     2       1    0    9    6
         2     5       0    8    7    5
         3     7       0    7    6    5
         4     9       0    4    1    5
 15      1     4       7    0    3    9
         2     4       6    0    4   10
         3     7       0    5    2    7
         4    10       5    0    2    7
 16      1     2       0    7    7    9
         2     3       8    0    5    6
         3     9       0    6    2    1
         4     9       7    0    2    2
 17      1     2       0    4    9    4
         2     6       0    4    7    3
         3     7       8    0    6    3
         4    10       7    0    5    3
 18      1     0       0    0    0    0
************************************************************************
RESOURCEAVAILABILITIES:
  R 1  R 2  N 1  N 2
   21   14   65   73
************************************************************************
